data/instances/vrp_files/train_32.vrp
NAME : 32
COMMENT : Generated instance No. 32
TYPE : CVRP
DIMENSION : 21
EDGE_WEIGHT_TYPE : EUC_2D
CAPACITY : 30
NODE_COORD_SECTION
 1 99 401
 2 285 815
 3 861 846
 4 918 252
 5 755 460
 6 841 728
 7 776 656
 8 177 545
 9 984 937
 10 43 164
 11 131 725
 12 817 213
 13 505 840
 14 732 542
 15 590 508
 16 297 565
 17 688 873
 18 636 761
 19 160 461
 20 9 246
 21 726 991
DEMAND_SECTION
1 0
2 10
3 2
4 9
5 10
6 5
7 7
8 2
9 9
10 9
11 4
12 4
13 6
14 10
15 10
16 10
17 6
18 1
19 9
20 2
21 5
DEPOT_SECTION
 1
 -1
EOF